RAW/CMTX/fspd-long/CMT9X.vrp_seed-8.out
1160.682024	66.452	388.314
