RAW/CMTX/fspd-long/CMT9X.vrp_seed-8.sol
Route #1: 12 144 109 4 149 146 56 47 139
Route #2: 145 142 87 150 19 64 88 40 94 141 148
Route #3: 103 90 71 123 124 33 72 91 45 15 52 108
Route #4: 97 86 43 99 114 113 26 60
Route #5: 11 126 16 127 53 129 29 79 21 118 130 50 78
Route #6: 81 8 140 82 31 28 70 80 120 1 119
Route #7: 77 32 51 22 101 3 59 20 131 83 2 100
Route #8: 27 138 48 112 61 7 69 23 57 6 102 46
Route #9: 38 62 9 34 74 75 105 30 104 49 76
Route #10: 5 10 54 39 89 117 73 106 125 122
Route #11: 37 137 44 107 65 93 42 92 147 17 63
Route #12: 110 133 14 58 25 95 96 24 98 132 68
Route #13: 18 55 134 67 13 136 41 66 111 135 143
Route #14: 128 84 35 85 36 115 121 116
Cost 1160.682024